s td 131 2 156
b 1 1 37
b 2 2 39
b 3 3
b 4 4 69
b 5 4 148
b 6 5
b 7 6 150
b 8 7 38
b 9 7 125
b 10 8 40
b 11 8 126
b 12 9 83
b 13 9 97
b 14 10 154
b 15 11 128
b 16 127 128
b 17 128
b 18 12 55
b 19 55 56
b 20 13 129
b 21 13 134
b 22 14 82
b 23 81 82
b 24 82
b 25 41 42
b 26 15 41
b 27 15 74
b 28 16
b 29 17 64
b 30 18
b 31 19 121
b 32 20 59
b 33 121 122
b 34 20 122
b 35 20 136
b 36 21
b 37 22 86
b 38 22 101
b 39 23 102
b 40 109 110
b 41 23 110
b 42 23 115
b 43 24 137
b 44 30 138
b 45 137 138
b 46 138
b 47 25 119
b 48 119 120
b 49 26 79
b 50 65 66
b 51 27 66
b 52 27 88
b 53 28 75
b 54 28 114
b 55 113 114
b 56 114
b 57 29 124
b 58 31
b 59 53 54
b 60 32 53
b 61 32 132
b 62 33
b 63 34 58
b 64 34 95
b 65 95 96
b 66 35 46
b 67 45 46
b 68 46
b 69 36
b 70 43
b 71 44
b 72 47
b 73 48
b 74 49 50
b 75 51
b 76 52
b 77 57
b 78 60
b 79 61
b 80 62
b 81 63
b 82 67
b 83 68
b 84 70
b 85 71
b 86 72
b 87 73
b 88 76
b 89 77
b 90 78
b 91 80
b 92 84
b 93 85
b 94 87
b 95 89
b 96 90
b 97 91 92
b 98 93
b 99 94
b 100 98
b 101 99
b 102 100
b 103 103
b 104 104
b 105 105
b 106 106
b 107 107 108
b 108 111
b 109 112
b 110 116
b 111 117
b 112 118
b 113 123
b 114 130
b 115 131
b 116 133
b 117 135
b 118 139
b 119 140
b 120 141 142
b 121 143
b 122 144
b 123 145
b 124 146
b 125 147
b 126 149
b 127 151
b 128 152
b 129 153
b 130 155
b 131 156
1 2
1 3
1 4
1 6
1 7
1 8
1 10
1 12
1 14
1 15
1 18
1 20
1 22
1 25
1 28
1 29
1 30
1 31
1 36
1 37
1 39
1 43
1 47
1 49
1 50
1 53
1 57
1 58
1 59
1 62
1 63
1 66
1 69
1 70
1 71
1 72
1 73
1 74
1 75
1 76
1 77
1 78
1 79
1 80
1 81
1 82
1 83
1 84
1 85
1 86
1 87
1 88
1 89
1 90
1 91
1 92
1 93
1 94
1 95
1 96
1 97
1 98
1 99
1 100
1 101
1 102
1 103
1 104
1 105
1 106
1 107
1 108
1 109
1 110
1 111
1 112
1 113
1 114
1 115
1 116
1 117
1 118
1 119
1 120
1 121
1 122
1 123
1 124
1 125
1 126
1 127
1 128
1 129
1 130
1 131
4 5
8 9
10 11
12 13
15 17
16 17
18 19
20 21
22 24
23 24
25 26
26 27
31 33
32 35
33 34
34 35
37 38
39 42
40 41
41 42
43 45
44 46
45 46
47 48
50 51
51 52
53 54
54 56
55 56
59 60
60 61
63 64
64 65
66 68
67 68
